60
1 0 5
2 0 3
2 1 2
3 0 2
4 0 5
4 1 3
5 1 4
5 2 1
5 3 2
5 4 2
6 0 6
6 3 6
7 0 3
7 2 3
7 3 4
7 6 3
8 0 6
8 1 5
8 4 3
8 6 2
9 7 1
9 8 6
10 1 3
10 8 4
10 9 6
11 0 2
11 1 3
11 2 1
11 3 4
11 4 3
11 5 3
11 6 2
11 9 5
11 10 2
12 2 3
12 5 3
12 6 2
12 7 3
12 8 1
12 10 2
13 0 1
13 1 5
13 4 5
13 6 2
13 7 5
13 10 4
14 2 4
14 3 5
14 7 3
14 8 6
14 10 2
14 11 1
14 13 4
15 0 5
15 2 1
15 3 4
15 5 5
15 6 1
15 10 4
15 11 6
15 14 5
16 0 5
16 3 1
16 6 1
16 8 5
16 10 1
16 13 2
16 15 1
17 0 6
17 3 5
17 6 6
17 7 4
17 8 2
17 10 1
17 11 5
17 12 1
17 15 6
18 0 4
18 1 1
18 2 6
18 3 4
18 4 4
18 5 6
18 8 5
18 9 3
18 10 2
18 11 3
18 14 1
18 15 5
19 1 4
19 3 1
19 7 1
19 10 5
19 11 6
19 14 6
19 16 1
19 17 1
19 18 5
20 2 1
20 3 5
20 5 3
20 7 3
20 8 3
20 9 4
20 12 5
20 13 4
20 17 1
20 18 3
20 19 1
21 2 2
21 3 4
21 5 6
21 7 5
21 9 5
21 10 1
21 13 4
21 16 4
21 18 1
21 20 2
22 0 6
22 1 3
22 5 5
22 6 6
22 11 3
22 12 3
22 15 1
22 16 5
22 17 4
22 18 1
22 20 2
23 0 1
23 3 3
23 4 1
23 5 4
23 6 4
23 9 4
23 13 1
23 14 3
23 15 1
23 17 2
23 20 1
23 21 5
24 2 1
24 4 1
24 5 1
24 6 6
24 9 5
24 14 5
24 15 5
24 16 5
24 17 5
24 21 5
24 23 4
25 2 1
25 5 4
25 7 5
25 10 2
25 11 6
25 13 4
25 14 2
25 15 3
25 20 1
25 21 6
25 24 5
26 0 1
26 5 6
26 6 4
26 8 2
26 11 5
26 12 3
26 13 1
26 14 2
26 15 1
26 16 3
26 17 5
26 22 4
26 24 4
26 25 4
27 0 1
27 3 2
27 5 2
27 6 5
27 9 3
27 10 6
27 11 5
27 13 5
27 15 5
27 16 1
27 24 6
27 25 5
27 26 3
28 3 4
28 6 5
28 7 5
28 9 4
28 11 1
28 12 4
28 14 3
28 18 5
28 19 1
28 20 4
28 21 2
28 22 3
28 24 5
28 25 4
29 0 2
29 6 1
29 7 3
29 11 2
29 13 3
29 16 4
29 18 6
29 20 2
29 21 5
29 23 5
29 24 1
29 25 3
29 28 6
30 1 2
30 2 6
30 3 4
30 4 3
30 5 6
30 6 1
30 8 3
30 16 6
30 18 6
30 21 6
30 25 2
30 28 1
31 1 2
31 2 3
31 4 3
31 6 2
31 10 4
31 11 1
31 12 6
31 13 2
31 14 6
31 17 5
31 19 2
31 21 2
31 22 1
31 23 1
31 26 6
31 28 1
31 29 5
31 30 3
32 2 5
32 3 6
32 4 1
32 5 4
32 6 6
32 7 5
32 10 2
32 11 1
32 12 5
32 13 2
32 14 3
32 15 1
32 17 5
32 18 5
32 19 1
32 21 2
32 22 5
32 23 6
32 24 5
32 27 3
32 31 3
33 1 1
33 2 5
33 3 3
33 5 6
33 7 4
33 8 2
33 12 4
33 13 2
33 14 5
33 22 2
33 25 3
33 26 5
33 28 5
33 29 5
34 0 3
34 2 1
34 3 5
34 4 1
34 6 3
34 9 1
34 10 4
34 11 6
34 12 5
34 14 3
34 15 2
34 17 3
34 18 4
34 19 3
34 22 2
34 23 6
34 26 3
34 29 2
34 32 5
35 3 6
35 5 6
35 7 2
35 8 1
35 9 6
35 10 5
35 13 5
35 14 3
35 15 3
35 16 5
35 17 3
35 18 3
35 19 1
35 20 2
35 21 4
35 24 2
35 27 3
35 28 3
35 30 6
35 32 3
35 33 3
35 34 3
36 0 2
36 2 5
36 3 4
36 4 2
36 5 1
36 6 4
36 9 1
36 10 6
36 12 1
36 13 1
36 16 5
36 20 2
36 21 5
36 25 2
36 26 2
36 28 6
36 29 3
36 30 4
36 31 3
36 32 5
36 33 3
36 35 4
37 3 2
37 5 2
37 6 6
37 8 1
37 10 6
37 11 5
37 12 2
37 15 6
37 20 6
37 21 6
37 23 4
37 24 3
37 25 1
37 29 2
37 31 5
37 32 6
37 33 6
37 34 4
37 35 4
38 0 6
38 1 1
38 3 6
38 6 1
38 8 4
38 10 2
38 14 5
38 15 1
38 16 6
38 17 1
38 18 5
38 19 6
38 22 2
38 26 2
38 29 1
38 32 4
38 33 6
38 35 1
39 1 1
39 2 4
39 6 2
39 9 3
39 11 3
39 13 2
39 16 6
39 18 5
39 20 1
39 23 1
39 27 6
39 32 3
39 35 3
39 36 3
40 3 1
40 6 3
40 7 1
40 8 2
40 10 1
40 13 5
40 19 3
40 26 5
40 27 3
40 29 6
40 32 4
40 33 1
40 34 4
40 35 1
40 36 2
41 0 1
41 1 4
41 4 3
41 6 4
41 8 6
41 9 6
41 13 2
41 14 6
41 15 2
41 17 3
41 18 1
41 21 6
41 23 1
41 24 3
41 26 3
41 29 4
41 30 1
41 32 3
41 34 3
41 35 2
41 36 1
41 37 6
41 38 5
41 40 1
42 0 3
42 1 2
42 2 4
42 3 5
42 4 4
42 5 4
42 7 3
42 9 5
42 10 6
42 11 4
42 12 2
42 15 4
42 20 3
42 27 1
42 28 3
42 36 4
42 38 5
42 39 2
42 41 6
43 0 4
43 2 1
43 3 3
43 8 5
43 11 5
43 12 1
43 14 5
43 16 3
43 17 2
43 18 3
43 20 6
43 24 5
43 27 3
43 34 1
43 35 2
43 36 1
43 38 4
43 39 5
43 41 1
43 42 5
44 0 3
44 4 1
44 7 6
44 9 4
44 13 6
44 14 4
44 15 5
44 17 6
44 21 4
44 24 4
44 25 4
44 27 3
44 28 3
44 31 5
44 34 1
44 36 3
44 37 6
44 39 3
44 40 6
44 41 4
44 43 1
45 3 4
45 4 5
45 5 6
45 7 3
45 8 2
45 9 6
45 10 3
45 11 3
45 12 6
45 13 5
45 16 5
45 17 4
45 18 2
45 19 2
45 21 2
45 23 1
45 26 4
45 27 2
45 28 3
45 31 1
45 32 1
45 33 2
45 35 4
45 36 3
45 37 5
45 39 3
45 40 6
45 42 3
45 44 6
46 1 6
46 4 4
46 5 2
46 7 1
46 8 1
46 12 5
46 13 4
46 14 2
46 20 4
46 21 1
46 24 5
46 25 6
46 26 5
46 27 5
46 28 3
46 29 6
46 32 6
46 33 6
46 35 2
46 36 3
46 38 3
46 39 6
46 41 5
46 43 6
47 0 4
47 1 6
47 4 5
47 5 2
47 7 4
47 8 6
47 10 3
47 16 5
47 23 2
47 28 6
47 31 6
47 32 5
47 38 4
47 39 6
47 40 3
47 41 3
47 44 3
47 46 5
48 0 6
48 4 1
48 6 5
48 7 2
48 8 3
48 9 3
48 13 6
48 14 1
48 16 3
48 17 6
48 19 6
48 21 4
48 22 5
48 24 5
48 25 5
48 27 5
48 28 1
48 29 4
48 30 1
48 32 3
48 34 3
48 39 1
48 41 2
48 43 1
48 44 1
48 46 1
49 1 1
49 3 5
49 4 2
49 8 1
49 9 4
49 12 6
49 13 6
49 14 2
49 17 5
49 20 3
49 22 2
49 24 2
49 25 2
49 26 5
49 28 3
49 29 2
49 31 3
49 33 4
49 36 4
49 37 1
49 38 2
49 40 6
49 48 6
50 0 5
50 2 6
50 3 1
50 4 4
50 6 3
50 8 1
50 9 3
50 12 1
50 16 6
50 18 2
50 22 6
50 23 3
50 25 6
50 29 4
50 31 4
50 32 2
50 39 1
50 46 6
50 49 4
51 0 6
51 2 3
51 4 1
51 5 2
51 7 6
51 8 1
51 9 6
51 12 4
51 15 1
51 17 2
51 18 5
51 19 6
51 21 3
51 22 1
51 24 3
51 25 5
51 26 1
51 28 6
51 30 4
51 31 4
51 32 4
51 33 3
51 34 6
51 35 5
51 36 3
51 38 6
51 41 3
51 43 4
51 50 6
52 0 1
52 2 1
52 4 3
52 5 3
52 8 4
52 9 5
52 10 2
52 11 2
52 12 4
52 16 3
52 17 3
52 18 2
52 19 5
52 23 1
52 24 3
52 25 2
52 27 5
52 28 4
52 31 6
52 32 3
52 33 5
52 37 3
52 38 2
52 42 5
52 43 3
52 44 4
52 45 3
52 47 5
52 48 4
52 49 5
52 50 4
52 51 1
53 4 4
53 5 2
53 7 2
53 10 3
53 12 2
53 14 3
53 16 2
53 24 1
53 25 3
53 26 4
53 27 1
53 28 4
53 29 3
53 30 4
53 31 6
53 33 2
53 34 3
53 35 2
53 37 5
53 38 4
53 39 2
53 40 2
53 42 5
53 44 5
53 45 2
53 47 6
53 48 4
53 51 4
53 52 4
54 0 2
54 1 5
54 2 4
54 3 1
54 7 5
54 9 1
54 10 4
54 11 2
54 20 1
54 27 6
54 28 6
54 29 1
54 30 4
54 31 6
54 35 2
54 39 4
54 40 5
54 42 5
54 43 3
54 48 3
54 49 1
55 0 2
55 2 1
55 4 6
55 9 1
55 10 3
55 11 1
55 12 4
55 13 2
55 14 1
55 16 4
55 19 2
55 20 2
55 23 2
55 24 5
55 28 4
55 31 1
55 33 4
55 35 4
55 37 1
55 39 2
55 41 4
55 44 6
55 49 2
55 50 1
55 51 6
55 52 4
55 53 6
56 2 1
56 3 2
56 6 4
56 7 1
56 8 3
56 9 3
56 14 3
56 20 5
56 21 3
56 23 2
56 24 5
56 25 5
56 26 1
56 27 5
56 28 5
56 30 6
56 31 2
56 32 2
56 35 3
56 37 2
56 41 4
56 42 5
56 45 2
56 48 4
56 49 5
56 50 2
56 51 5
56 52 1
56 53 5
57 3 5
57 8 6
57 11 4
57 12 2
57 15 1
57 22 4
57 24 6
57 26 3
57 28 4
57 31 2
57 32 1
57 35 1
57 43 6
57 45 4
57 48 2
57 50 1
57 52 5
58 0 4
58 4 1
58 5 4
58 8 1
58 9 3
58 13 5
58 17 1
58 18 5
58 22 3
58 24 4
58 25 1
58 26 3
58 28 2
58 29 6
58 31 1
58 32 3
58 33 4
58 35 4
58 36 1
58 37 1
58 38 5
58 44 2
58 46 6
58 47 1
58 48 4
58 50 5
58 52 3
58 54 6
58 56 3
59 1 6
59 2 1
59 3 1
59 6 5
59 8 4
59 12 3
59 13 5
59 14 2
59 21 4
59 22 4
59 24 5
59 26 2
59 28 3
59 29 4
59 30 3
59 31 3
59 32 5
59 33 2
59 34 1
59 35 1
59 39 1
59 40 6
59 41 4
59 44 3
59 47 1
59 48 1
59 49 5
59 52 4
59 53 4
59 55 5
59 58 1
